VER
4

OBJSENSE
MIN

QCECONES
1 2
2
2 2 2 2 2 2
0

VAR
2081 1
@0:SVECQCE 2081

CON
530 1
L= 530

OBJACOORD
80
1 1.0
3 1.0
6 1.0
10 1.0
15 1.0
21 1.0
28 1.0
36 1.0
45 1.0
55 1.0
66 1.0
78 1.0
91 1.0
105 1.0
120 1.0
136 1.0
153 -1.0
171 -1.0
190 -1.0
210 -1.0
231 -1.0
253 -1.0
276 -1.0
300 -1.0
325 -1.0
351 -1.0
378 -1.0
406 -1.0
435 -1.0
465 -1.0
496 -1.0
528 -1.0
545 -2.8284271247461903
561 -1.0
579 -2.8284271247461903
595 -1.0
614 -2.8284271247461903
630 -1.0
650 -2.8284271247461903
666 -1.0
687 -2.8284271247461903
703 -1.0
725 -2.8284271247461903
741 -1.0
764 -2.8284271247461903
780 -1.0
804 -2.8284271247461903
820 -1.0
845 -2.8284271247461903
861 -1.0
887 -2.8284271247461903
903 -1.0
930 -2.8284271247461903
946 -1.0
974 -2.8284271247461903
990 -1.0
1019 -2.8284271247461903
1035 -1.0
1065 -2.8284271247461903
1081 -1.0
1112 -2.8284271247461903
1128 -1.0
1160 -2.8284271247461903
1176 -1.0
1225 1.0
1275 1.0
1326 1.0
1378 1.0
1431 1.0
1485 1.0
1540 1.0
1596 1.0
1653 1.0
1711 1.0
1770 1.0
1830 1.0
1891 1.0
1953 1.0
2016 1.0
2080 1.0

ACOORD
2173
0 3 -1.0
0 561 1.0
1 2 1.0
1 4 -1.0
1 8 -1.0
1 594 1.0
2 3 1.0
2 6 -1.0
2 10 -1.0
2 595 1.0
3 4 1.0
3 11 -1.0
3 17 -1.0
3 628 1.0
4 5 1.0
4 13 -1.0
4 19 -1.0
4 629 1.0
5 6 1.0
5 15 -1.0
5 21 -1.0
5 630 1.0
6 7 1.0
6 22 -1.0
6 30 -1.0
6 663 1.0
7 8 1.0
7 24 -1.0
7 32 -1.0
7 664 1.0
8 9 1.0
8 26 -1.0
8 34 -1.0
8 665 1.0
9 10 1.0
9 28 -1.0
9 36 -1.0
9 666 1.0
10 11 1.0
10 37 -1.0
10 47 -1.0
10 699 1.0
11 12 1.0
11 39 -1.0
11 49 -1.0
11 700 1.0
12 13 1.0
12 41 -1.0
12 51 -1.0
12 701 1.0
13 14 1.0
13 43 -1.0
13 53 -1.0
13 702 1.0
14 15 1.0
14 45 -1.0
14 55 -1.0
14 703 1.0
15 16 1.0
15 56 -1.0
15 68 -1.0
15 736 1.0
16 17 1.0
16 58 -1.0
16 70 -1.0
16 737 1.0
17 18 1.0
17 60 -1.0
17 72 -1.0
17 738 1.0
18 19 1.0
18 62 -1.0
18 74 -1.0
18 739 1.0
19 20 1.0
19 64 -1.0
19 76 -1.0
19 740 1.0
20 21 1.0
20 66 -1.0
20 78 -1.0
20 741 1.0
21 22 1.0
21 79 -1.0
21 93 -1.0
21 774 1.0
22 23 1.0
22 81 -1.0
22 95 -1.0
22 775 1.0
23 24 1.0
23 83 -1.0
23 97 -1.0
23 776 1.0
24 25 1.0
24 85 -1.0
24 99 -1.0
24 777 1.0
25 26 1.0
25 87 -1.0
25 101 -1.0
25 778 1.0
26 27 1.0
26 89 -1.0
26 103 -1.0
26 779 1.0
27 28 1.0
27 91 -1.0
27 105 -1.0
27 780 1.0
28 29 1.0
28 106 -1.0
28 122 -1.0
28 813 1.0
29 30 1.0
29 108 -1.0
29 124 -1.0
29 814 1.0
30 31 1.0
30 110 -1.0
30 126 -1.0
30 815 1.0
31 32 1.0
31 112 -1.0
31 128 -1.0
31 816 1.0
32 33 1.0
32 114 -1.0
32 130 -1.0
32 817 1.0
33 34 1.0
33 116 -1.0
33 132 -1.0
33 818 1.0
34 35 1.0
34 118 -1.0
34 134 -1.0
34 819 1.0
35 36 1.0
35 120 -1.0
35 136 -1.0
35 820 1.0
36 37 1.0
36 137 -1.0
36 155 -1.0
36 853 1.0
37 38 1.0
37 139 -1.0
37 157 -1.0
37 854 1.0
38 39 1.0
38 141 -1.0
38 159 -1.0
38 855 1.0
39 40 1.0
39 143 -1.0
39 161 -1.0
39 856 1.0
40 41 1.0
40 145 -1.0
40 163 -1.0
40 857 1.0
41 42 1.0
41 147 -1.0
41 165 -1.0
41 858 1.0
42 43 1.0
42 149 -1.0
42 167 -1.0
42 859 1.0
43 44 1.0
43 151 -1.0
43 169 -1.0
43 860 1.0
44 45 1.0
44 153 -1.0
44 171 -1.0
44 861 1.0
45 46 1.0
45 172 -1.0
45 192 -1.0
45 894 1.0
46 47 1.0
46 174 -1.0
46 194 -1.0
46 895 1.0
47 48 1.0
47 176 -1.0
47 196 -1.0
47 896 1.0
48 49 1.0
48 178 -1.0
48 198 -1.0
48 897 1.0
49 50 1.0
49 180 -1.0
49 200 -1.0
49 898 1.0
50 51 1.0
50 182 -1.0
50 202 -1.0
50 899 1.0
51 52 1.0
51 184 -1.0
51 204 -1.0
51 900 1.0
52 53 1.0
52 186 -1.0
52 206 -1.0
52 901 1.0
53 54 1.0
53 188 -1.0
53 208 -1.0
53 902 1.0
54 55 1.0
54 190 -1.0
54 210 -1.0
54 903 1.0
55 56 1.0
55 211 -1.0
55 233 -1.0
55 936 1.0
56 57 1.0
56 213 -1.0
56 235 -1.0
56 937 1.0
57 58 1.0
57 215 -1.0
57 237 -1.0
57 938 1.0
58 59 1.0
58 217 -1.0
58 239 -1.0
58 939 1.0
59 60 1.0
59 219 -1.0
59 241 -1.0
59 940 1.0
60 61 1.0
60 221 -1.0
60 243 -1.0
60 941 1.0
61 62 1.0
61 223 -1.0
61 245 -1.0
61 942 1.0
62 63 1.0
62 225 -1.0
62 247 -1.0
62 943 1.0
63 64 1.0
63 227 -1.0
63 249 -1.0
63 944 1.0
64 65 1.0
64 229 -1.0
64 251 -1.0
64 945 1.0
65 66 1.0
65 231 -1.0
65 253 -1.0
65 946 1.0
66 67 1.0
66 254 -1.0
66 278 -1.0
66 979 1.0
67 68 1.0
67 256 -1.0
67 280 -1.0
67 980 1.0
68 69 1.0
68 258 -1.0
68 282 -1.0
68 981 1.0
69 70 1.0
69 260 -1.0
69 284 -1.0
69 982 1.0
70 71 1.0
70 262 -1.0
70 286 -1.0
70 983 1.0
71 72 1.0
71 264 -1.0
71 288 -1.0
71 984 1.0
72 73 1.0
72 266 -1.0
72 290 -1.0
72 985 1.0
73 74 1.0
73 268 -1.0
73 292 -1.0
73 986 1.0
74 75 1.0
74 270 -1.0
74 294 -1.0
74 987 1.0
75 76 1.0
75 272 -1.0
75 296 -1.0
75 988 1.0
76 77 1.0
76 274 -1.0
76 298 -1.0
76 989 1.0
77 78 1.0
77 276 -1.0
77 300 -1.0
77 990 1.0
78 79 1.0
78 301 -1.0
78 327 -1.0
78 1023 1.0
79 80 1.0
79 303 -1.0
79 329 -1.0
79 1024 1.0
80 81 1.0
80 305 -1.0
80 331 -1.0
80 1025 1.0
81 82 1.0
81 307 -1.0
81 333 -1.0
81 1026 1.0
82 83 1.0
82 309 -1.0
82 335 -1.0
82 1027 1.0
83 84 1.0
83 311 -1.0
83 337 -1.0
83 1028 1.0
84 85 1.0
84 313 -1.0
84 339 -1.0
84 1029 1.0
85 86 1.0
85 315 -1.0
85 341 -1.0
85 1030 1.0
86 87 1.0
86 317 -1.0
86 343 -1.0
86 1031 1.0
87 88 1.0
87 319 -1.0
87 345 -1.0
87 1032 1.0
88 89 1.0
88 321 -1.0
88 347 -1.0
88 1033 1.0
89 90 1.0
89 323 -1.0
89 349 -1.0
89 1034 1.0
90 91 1.0
90 325 -1.0
90 351 -1.0
90 1035 1.0
91 92 1.0
91 352 -1.0
91 380 -1.0
91 1068 1.0
92 93 1.0
92 354 -1.0
92 382 -1.0
92 1069 1.0
93 94 1.0
93 356 -1.0
93 384 -1.0
93 1070 1.0
94 95 1.0
94 358 -1.0
94 386 -1.0
94 1071 1.0
95 96 1.0
95 360 -1.0
95 388 -1.0
95 1072 1.0
96 97 1.0
96 362 -1.0
96 390 -1.0
96 1073 1.0
97 98 1.0
97 364 -1.0
97 392 -1.0
97 1074 1.0
98 99 1.0
98 366 -1.0
98 394 -1.0
98 1075 1.0
99 100 1.0
99 368 -1.0
99 396 -1.0
99 1076 1.0
100 101 1.0
100 370 -1.0
100 398 -1.0
100 1077 1.0
101 102 1.0
101 372 -1.0
101 400 -1.0
101 1078 1.0
102 103 1.0
102 374 -1.0
102 402 -1.0
102 1079 1.0
103 104 1.0
103 376 -1.0
103 404 -1.0
103 1080 1.0
104 105 1.0
104 378 -1.0
104 406 -1.0
104 1081 1.0
105 106 1.0
105 407 -1.0
105 437 -1.0
105 1114 1.0
106 107 1.0
106 409 -1.0
106 439 -1.0
106 1115 1.0
107 108 1.0
107 411 -1.0
107 441 -1.0
107 1116 1.0
108 109 1.0
108 413 -1.0
108 443 -1.0
108 1117 1.0
109 110 1.0
109 415 -1.0
109 445 -1.0
109 1118 1.0
110 111 1.0
110 417 -1.0
110 447 -1.0
110 1119 1.0
111 112 1.0
111 419 -1.0
111 449 -1.0
111 1120 1.0
112 113 1.0
112 421 -1.0
112 451 -1.0
112 1121 1.0
113 114 1.0
113 423 -1.0
113 453 -1.0
113 1122 1.0
114 115 1.0
114 425 -1.0
114 455 -1.0
114 1123 1.0
115 116 1.0
115 427 -1.0
115 457 -1.0
115 1124 1.0
116 117 1.0
116 429 -1.0
116 459 -1.0
116 1125 1.0
117 118 1.0
117 431 -1.0
117 461 -1.0
117 1126 1.0
118 119 1.0
118 433 -1.0
118 463 -1.0
118 1127 1.0
119 120 1.0
119 435 -1.0
119 465 -1.0
119 1128 1.0
120 121 1.0
120 466 -1.0
120 498 -1.0
120 1161 1.0
121 122 1.0
121 468 -1.0
121 500 -1.0
121 1162 1.0
122 123 1.0
122 470 -1.0
122 502 -1.0
122 1163 1.0
123 124 1.0
123 472 -1.0
123 504 -1.0
123 1164 1.0
124 125 1.0
124 474 -1.0
124 506 -1.0
124 1165 1.0
125 126 1.0
125 476 -1.0
125 508 -1.0
125 1166 1.0
126 127 1.0
126 478 -1.0
126 510 -1.0
126 1167 1.0
127 128 1.0
127 480 -1.0
127 512 -1.0
127 1168 1.0
128 129 1.0
128 482 -1.0
128 514 -1.0
128 1169 1.0
129 130 1.0
129 484 -1.0
129 516 -1.0
129 1170 1.0
130 131 1.0
130 486 -1.0
130 518 -1.0
130 1171 1.0
131 132 1.0
131 488 -1.0
131 520 -1.0
131 1172 1.0
132 133 1.0
132 490 -1.0
132 522 -1.0
132 1173 1.0
133 134 1.0
133 492 -1.0
133 524 -1.0
133 1174 1.0
134 135 1.0
134 494 -1.0
134 526 -1.0
134 1175 1.0
135 136 1.0
135 496 -1.0
135 528 -1.0
135 1176 1.0
136 137 1.0
136 529 -1.0
136 563 -1.0
136 1209 1.0
137 138 1.0
137 531 -1.0
137 565 -1.0
137 1210 1.0
138 139 1.0
138 533 -1.0
138 567 -1.0
138 1211 1.0
139 140 1.0
139 535 -1.0
139 569 -1.0
139 1212 1.0
140 141 1.0
140 537 -1.0
140 571 -1.0
140 1213 1.0
141 142 1.0
141 539 -1.0
141 573 -1.0
141 1214 1.0
142 143 1.0
142 541 -1.0
142 575 -1.0
142 1215 1.0
143 144 1.0
143 543 -1.0
143 577 -1.0
143 1216 1.0
144 145 1.0
144 545 -1.0
144 579 -1.0
144 1217 1.0
145 146 1.0
145 547 -1.0
145 581 -1.0
145 1218 1.0
146 147 1.0
146 549 -1.0
146 583 -1.0
146 1219 1.0
147 148 1.0
147 551 -1.0
147 585 -1.0
147 1220 1.0
148 149 1.0
148 553 -1.0
148 587 -1.0
148 1221 1.0
149 150 1.0
149 555 -1.0
149 589 -1.0
149 1222 1.0
150 151 1.0
150 557 -1.0
150 591 -1.0
150 1223 1.0
151 152 1.0
151 559 -1.0
151 593 -1.0
151 1224 1.0
152 153 1.0
152 561 -1.0
152 595 -1.0
152 1225 1.0
153 154 1.0
153 596 -1.0
153 632 -1.0
153 1258 1.0
154 155 1.0
154 598 -1.0
154 634 -1.0
154 1259 1.0
155 156 1.0
155 600 -1.0
155 636 -1.0
155 1260 1.0
156 157 1.0
156 602 -1.0
156 638 -1.0
156 1261 1.0
157 158 1.0
157 604 -1.0
157 640 -1.0
157 1262 1.0
158 159 1.0
158 606 -1.0
158 642 -1.0
158 1263 1.0
159 160 1.0
159 608 -1.0
159 644 -1.0
159 1264 1.0
160 161 1.0
160 610 -1.0
160 646 -1.0
160 1265 1.0
161 162 1.0
161 612 -1.0
161 648 -1.0
161 1266 1.0
162 163 1.0
162 614 -1.0
162 650 -1.0
162 1267 1.0
163 164 1.0
163 616 -1.0
163 652 -1.0
163 1268 1.0
164 165 1.0
164 618 -1.0
164 654 -1.0
164 1269 1.0
165 166 1.0
165 620 -1.0
165 656 -1.0
165 1270 1.0
166 167 1.0
166 622 -1.0
166 658 -1.0
166 1271 1.0
167 168 1.0
167 624 -1.0
167 660 -1.0
167 1272 1.0
168 169 1.0
168 626 -1.0
168 662 -1.0
168 1273 1.0
169 170 1.0
169 628 -1.0
169 664 -1.0
169 1274 1.0
170 171 1.0
170 630 -1.0
170 666 -1.0
170 1275 1.0
171 172 1.0
171 667 -1.0
171 705 -1.0
171 1308 1.0
172 173 1.0
172 669 -1.0
172 707 -1.0
172 1309 1.0
173 174 1.0
173 671 -1.0
173 709 -1.0
173 1310 1.0
174 175 1.0
174 673 -1.0
174 711 -1.0
174 1311 1.0
175 176 1.0
175 675 -1.0
175 713 -1.0
175 1312 1.0
176 177 1.0
176 677 -1.0
176 715 -1.0
176 1313 1.0
177 178 1.0
177 679 -1.0
177 717 -1.0
177 1314 1.0
178 179 1.0
178 681 -1.0
178 719 -1.0
178 1315 1.0
179 180 1.0
179 683 -1.0
179 721 -1.0
179 1316 1.0
180 181 1.0
180 685 -1.0
180 723 -1.0
180 1317 1.0
181 182 1.0
181 687 -1.0
181 725 -1.0
181 1318 1.0
182 183 1.0
182 689 -1.0
182 727 -1.0
182 1319 1.0
183 184 1.0
183 691 -1.0
183 729 -1.0
183 1320 1.0
184 185 1.0
184 693 -1.0
184 731 -1.0
184 1321 1.0
185 186 1.0
185 695 -1.0
185 733 -1.0
185 1322 1.0
186 187 1.0
186 697 -1.0
186 735 -1.0
186 1323 1.0
187 188 1.0
187 699 -1.0
187 737 -1.0
187 1324 1.0
188 189 1.0
188 701 -1.0
188 739 -1.0
188 1325 1.0
189 190 1.0
189 703 -1.0
189 741 -1.0
189 1326 1.0
190 191 1.0
190 742 -1.0
190 782 -1.0
190 1359 1.0
191 192 1.0
191 744 -1.0
191 784 -1.0
191 1360 1.0
192 193 1.0
192 746 -1.0
192 786 -1.0
192 1361 1.0
193 194 1.0
193 748 -1.0
193 788 -1.0
193 1362 1.0
194 195 1.0
194 750 -1.0
194 790 -1.0
194 1363 1.0
195 196 1.0
195 752 -1.0
195 792 -1.0
195 1364 1.0
196 197 1.0
196 754 -1.0
196 794 -1.0
196 1365 1.0
197 198 1.0
197 756 -1.0
197 796 -1.0
197 1366 1.0
198 199 1.0
198 758 -1.0
198 798 -1.0
198 1367 1.0
199 200 1.0
199 760 -1.0
199 800 -1.0
199 1368 1.0
200 201 1.0
200 762 -1.0
200 802 -1.0
200 1369 1.0
201 202 1.0
201 764 -1.0
201 804 -1.0
201 1370 1.0
202 203 1.0
202 766 -1.0
202 806 -1.0
202 1371 1.0
203 204 1.0
203 768 -1.0
203 808 -1.0
203 1372 1.0
204 205 1.0
204 770 -1.0
204 810 -1.0
204 1373 1.0
205 206 1.0
205 772 -1.0
205 812 -1.0
205 1374 1.0
206 207 1.0
206 774 -1.0
206 814 -1.0
206 1375 1.0
207 208 1.0
207 776 -1.0
207 816 -1.0
207 1376 1.0
208 209 1.0
208 778 -1.0
208 818 -1.0
208 1377 1.0
209 210 1.0
209 780 -1.0
209 820 -1.0
209 1378 1.0
210 211 1.0
210 821 -1.0
210 863 -1.0
210 1411 1.0
211 212 1.0
211 823 -1.0
211 865 -1.0
211 1412 1.0
212 213 1.0
212 825 -1.0
212 867 -1.0
212 1413 1.0
213 214 1.0
213 827 -1.0
213 869 -1.0
213 1414 1.0
214 215 1.0
214 829 -1.0
214 871 -1.0
214 1415 1.0
215 216 1.0
215 831 -1.0
215 873 -1.0
215 1416 1.0
216 217 1.0
216 833 -1.0
216 875 -1.0
216 1417 1.0
217 218 1.0
217 835 -1.0
217 877 -1.0
217 1418 1.0
218 219 1.0
218 837 -1.0
218 879 -1.0
218 1419 1.0
219 220 1.0
219 839 -1.0
219 881 -1.0
219 1420 1.0
220 221 1.0
220 841 -1.0
220 883 -1.0
220 1421 1.0
221 222 1.0
221 843 -1.0
221 885 -1.0
221 1422 1.0
222 223 1.0
222 845 -1.0
222 887 -1.0
222 1423 1.0
223 224 1.0
223 847 -1.0
223 889 -1.0
223 1424 1.0
224 225 1.0
224 849 -1.0
224 891 -1.0
224 1425 1.0
225 226 1.0
225 851 -1.0
225 893 -1.0
225 1426 1.0
226 227 1.0
226 853 -1.0
226 895 -1.0
226 1427 1.0
227 228 1.0
227 855 -1.0
227 897 -1.0
227 1428 1.0
228 229 1.0
228 857 -1.0
228 899 -1.0
228 1429 1.0
229 230 1.0
229 859 -1.0
229 901 -1.0
229 1430 1.0
230 231 1.0
230 861 -1.0
230 903 -1.0
230 1431 1.0
231 232 1.0
231 904 -1.0
231 948 -1.0
231 1464 1.0
232 233 1.0
232 906 -1.0
232 950 -1.0
232 1465 1.0
233 234 1.0
233 908 -1.0
233 952 -1.0
233 1466 1.0
234 235 1.0
234 910 -1.0
234 954 -1.0
234 1467 1.0
235 236 1.0
235 912 -1.0
235 956 -1.0
235 1468 1.0
236 237 1.0
236 914 -1.0
236 958 -1.0
236 1469 1.0
237 238 1.0
237 916 -1.0
237 960 -1.0
237 1470 1.0
238 239 1.0
238 918 -1.0
238 962 -1.0
238 1471 1.0
239 240 1.0
239 920 -1.0
239 964 -1.0
239 1472 1.0
240 241 1.0
240 922 -1.0
240 966 -1.0
240 1473 1.0
241 242 1.0
241 924 -1.0
241 968 -1.0
241 1474 1.0
242 243 1.0
242 926 -1.0
242 970 -1.0
242 1475 1.0
243 244 1.0
243 928 -1.0
243 972 -1.0
243 1476 1.0
244 245 1.0
244 930 -1.0
244 974 -1.0
244 1477 1.0
245 246 1.0
245 932 -1.0
245 976 -1.0
245 1478 1.0
246 247 1.0
246 934 -1.0
246 978 -1.0
246 1479 1.0
247 248 1.0
247 936 -1.0
247 980 -1.0
247 1480 1.0
248 249 1.0
248 938 -1.0
248 982 -1.0
248 1481 1.0
249 250 1.0
249 940 -1.0
249 984 -1.0
249 1482 1.0
250 251 1.0
250 942 -1.0
250 986 -1.0
250 1483 1.0
251 252 1.0
251 944 -1.0
251 988 -1.0
251 1484 1.0
252 253 1.0
252 946 -1.0
252 990 -1.0
252 1485 1.0
253 254 1.0
253 991 -1.0
253 1037 -1.0
253 1518 1.0
254 255 1.0
254 993 -1.0
254 1039 -1.0
254 1519 1.0
255 256 1.0
255 995 -1.0
255 1041 -1.0
255 1520 1.0
256 257 1.0
256 997 -1.0
256 1043 -1.0
256 1521 1.0
257 258 1.0
257 999 -1.0
257 1045 -1.0
257 1522 1.0
258 259 1.0
258 1001 -1.0
258 1047 -1.0
258 1523 1.0
259 260 1.0
259 1003 -1.0
259 1049 -1.0
259 1524 1.0
260 261 1.0
260 1005 -1.0
260 1051 -1.0
260 1525 1.0
261 262 1.0
261 1007 -1.0
261 1053 -1.0
261 1526 1.0
262 263 1.0
262 1009 -1.0
262 1055 -1.0
262 1527 1.0
263 264 1.0
263 1011 -1.0
263 1057 -1.0
263 1528 1.0
264 265 1.0
264 1013 -1.0
264 1059 -1.0
264 1529 1.0
265 266 1.0
265 1015 -1.0
265 1061 -1.0
265 1530 1.0
266 267 1.0
266 1017 -1.0
266 1063 -1.0
266 1531 1.0
267 268 1.0
267 1019 -1.0
267 1065 -1.0
267 1532 1.0
268 269 1.0
268 1021 -1.0
268 1067 -1.0
268 1533 1.0
269 270 1.0
269 1023 -1.0
269 1069 -1.0
269 1534 1.0
270 271 1.0
270 1025 -1.0
270 1071 -1.0
270 1535 1.0
271 272 1.0
271 1027 -1.0
271 1073 -1.0
271 1536 1.0
272 273 1.0
272 1029 -1.0
272 1075 -1.0
272 1537 1.0
273 274 1.0
273 1031 -1.0
273 1077 -1.0
273 1538 1.0
274 275 1.0
274 1033 -1.0
274 1079 -1.0
274 1539 1.0
275 276 1.0
275 1035 -1.0
275 1081 -1.0
275 1540 1.0
276 277 1.0
276 1082 -1.0
276 1130 -1.0
276 1573 1.0
277 278 1.0
277 1084 -1.0
277 1132 -1.0
277 1574 1.0
278 279 1.0
278 1086 -1.0
278 1134 -1.0
278 1575 1.0
279 280 1.0
279 1088 -1.0
279 1136 -1.0
279 1576 1.0
280 281 1.0
280 1090 -1.0
280 1138 -1.0
280 1577 1.0
281 282 1.0
281 1092 -1.0
281 1140 -1.0
281 1578 1.0
282 283 1.0
282 1094 -1.0
282 1142 -1.0
282 1579 1.0
283 284 1.0
283 1096 -1.0
283 1144 -1.0
283 1580 1.0
284 285 1.0
284 1098 -1.0
284 1146 -1.0
284 1581 1.0
285 286 1.0
285 1100 -1.0
285 1148 -1.0
285 1582 1.0
286 287 1.0
286 1102 -1.0
286 1150 -1.0
286 1583 1.0
287 288 1.0
287 1104 -1.0
287 1152 -1.0
287 1584 1.0
288 289 1.0
288 1106 -1.0
288 1154 -1.0
288 1585 1.0
289 290 1.0
289 1108 -1.0
289 1156 -1.0
289 1586 1.0
290 291 1.0
290 1110 -1.0
290 1158 -1.0
290 1587 1.0
291 292 1.0
291 1112 -1.0
291 1160 -1.0
291 1588 1.0
292 293 1.0
292 1114 -1.0
292 1162 -1.0
292 1589 1.0
293 294 1.0
293 1116 -1.0
293 1164 -1.0
293 1590 1.0
294 295 1.0
294 1118 -1.0
294 1166 -1.0
294 1591 1.0
295 296 1.0
295 1120 -1.0
295 1168 -1.0
295 1592 1.0
296 297 1.0
296 1122 -1.0
296 1170 -1.0
296 1593 1.0
297 298 1.0
297 1124 -1.0
297 1172 -1.0
297 1594 1.0
298 299 1.0
298 1126 -1.0
298 1174 -1.0
298 1595 1.0
299 300 1.0
299 1128 -1.0
299 1176 -1.0
299 1596 1.0
300 301 1.0
300 1177 -1.0
300 1227 -1.0
300 1629 1.0
301 302 1.0
301 1179 -1.0
301 1229 -1.0
301 1630 1.0
302 303 1.0
302 1181 -1.0
302 1231 -1.0
302 1631 1.0
303 304 1.0
303 1183 -1.0
303 1233 -1.0
303 1632 1.0
304 305 1.0
304 1185 -1.0
304 1235 -1.0
304 1633 1.0
305 306 1.0
305 1187 -1.0
305 1237 -1.0
305 1634 1.0
306 307 1.0
306 1189 -1.0
306 1239 -1.0
306 1635 1.0
307 308 1.0
307 1191 -1.0
307 1241 -1.0
307 1636 1.0
308 309 1.0
308 1193 -1.0
308 1243 -1.0
308 1637 1.0
309 310 1.0
309 1195 -1.0
309 1245 -1.0
309 1638 1.0
310 311 1.0
310 1197 -1.0
310 1247 -1.0
310 1639 1.0
311 312 1.0
311 1199 -1.0
311 1249 -1.0
311 1640 1.0
312 313 1.0
312 1201 -1.0
312 1251 -1.0
312 1641 1.0
313 314 1.0
313 1203 -1.0
313 1253 -1.0
313 1642 1.0
314 315 1.0
314 1205 -1.0
314 1255 -1.0
314 1643 1.0
315 316 1.0
315 1207 -1.0
315 1257 -1.0
315 1644 1.0
316 317 1.0
316 1209 -1.0
316 1259 -1.0
316 1645 1.0
317 318 1.0
317 1211 -1.0
317 1261 -1.0
317 1646 1.0
318 319 1.0
318 1213 -1.0
318 1263 -1.0
318 1647 1.0
319 320 1.0
319 1215 -1.0
319 1265 -1.0
319 1648 1.0
320 321 1.0
320 1217 -1.0
320 1267 -1.0
320 1649 1.0
321 322 1.0
321 1219 -1.0
321 1269 -1.0
321 1650 1.0
322 323 1.0
322 1221 -1.0
322 1271 -1.0
322 1651 1.0
323 324 1.0
323 1223 -1.0
323 1273 -1.0
323 1652 1.0
324 325 1.0
324 1225 -1.0
324 1275 -1.0
324 1653 1.0
325 326 1.0
325 1276 -1.0
325 1328 -1.0
325 1686 1.0
326 327 1.0
326 1278 -1.0
326 1330 -1.0
326 1687 1.0
327 328 1.0
327 1280 -1.0
327 1332 -1.0
327 1688 1.0
328 329 1.0
328 1282 -1.0
328 1334 -1.0
328 1689 1.0
329 330 1.0
329 1284 -1.0
329 1336 -1.0
329 1690 1.0
330 331 1.0
330 1286 -1.0
330 1338 -1.0
330 1691 1.0
331 332 1.0
331 1288 -1.0
331 1340 -1.0
331 1692 1.0
332 333 1.0
332 1290 -1.0
332 1342 -1.0
332 1693 1.0
333 334 1.0
333 1292 -1.0
333 1344 -1.0
333 1694 1.0
334 335 1.0
334 1294 -1.0
334 1346 -1.0
334 1695 1.0
335 336 1.0
335 1296 -1.0
335 1348 -1.0
335 1696 1.0
336 337 1.0
336 1298 -1.0
336 1350 -1.0
336 1697 1.0
337 338 1.0
337 1300 -1.0
337 1352 -1.0
337 1698 1.0
338 339 1.0
338 1302 -1.0
338 1354 -1.0
338 1699 1.0
339 340 1.0
339 1304 -1.0
339 1356 -1.0
339 1700 1.0
340 341 1.0
340 1306 -1.0
340 1358 -1.0
340 1701 1.0
341 342 1.0
341 1308 -1.0
341 1360 -1.0
341 1702 1.0
342 343 1.0
342 1310 -1.0
342 1362 -1.0
342 1703 1.0
343 344 1.0
343 1312 -1.0
343 1364 -1.0
343 1704 1.0
344 345 1.0
344 1314 -1.0
344 1366 -1.0
344 1705 1.0
345 346 1.0
345 1316 -1.0
345 1368 -1.0
345 1706 1.0
346 347 1.0
346 1318 -1.0
346 1370 -1.0
346 1707 1.0
347 348 1.0
347 1320 -1.0
347 1372 -1.0
347 1708 1.0
348 349 1.0
348 1322 -1.0
348 1374 -1.0
348 1709 1.0
349 350 1.0
349 1324 -1.0
349 1376 -1.0
349 1710 1.0
350 351 1.0
350 1326 -1.0
350 1378 -1.0
350 1711 1.0
351 352 1.0
351 1379 -1.0
351 1433 -1.0
351 1744 1.0
352 353 1.0
352 1381 -1.0
352 1435 -1.0
352 1745 1.0
353 354 1.0
353 1383 -1.0
353 1437 -1.0
353 1746 1.0
354 355 1.0
354 1385 -1.0
354 1439 -1.0
354 1747 1.0
355 356 1.0
355 1387 -1.0
355 1441 -1.0
355 1748 1.0
356 357 1.0
356 1389 -1.0
356 1443 -1.0
356 1749 1.0
357 358 1.0
357 1391 -1.0
357 1445 -1.0
357 1750 1.0
358 359 1.0
358 1393 -1.0
358 1447 -1.0
358 1751 1.0
359 360 1.0
359 1395 -1.0
359 1449 -1.0
359 1752 1.0
360 361 1.0
360 1397 -1.0
360 1451 -1.0
360 1753 1.0
361 362 1.0
361 1399 -1.0
361 1453 -1.0
361 1754 1.0
362 363 1.0
362 1401 -1.0
362 1455 -1.0
362 1755 1.0
363 364 1.0
363 1403 -1.0
363 1457 -1.0
363 1756 1.0
364 365 1.0
364 1405 -1.0
364 1459 -1.0
364 1757 1.0
365 366 1.0
365 1407 -1.0
365 1461 -1.0
365 1758 1.0
366 367 1.0
366 1409 -1.0
366 1463 -1.0
366 1759 1.0
367 368 1.0
367 1411 -1.0
367 1465 -1.0
367 1760 1.0
368 369 1.0
368 1413 -1.0
368 1467 -1.0
368 1761 1.0
369 370 1.0
369 1415 -1.0
369 1469 -1.0
369 1762 1.0
370 371 1.0
370 1417 -1.0
370 1471 -1.0
370 1763 1.0
371 372 1.0
371 1419 -1.0
371 1473 -1.0
371 1764 1.0
372 373 1.0
372 1421 -1.0
372 1475 -1.0
372 1765 1.0
373 374 1.0
373 1423 -1.0
373 1477 -1.0
373 1766 1.0
374 375 1.0
374 1425 -1.0
374 1479 -1.0
374 1767 1.0
375 376 1.0
375 1427 -1.0
375 1481 -1.0
375 1768 1.0
376 377 1.0
376 1429 -1.0
376 1483 -1.0
376 1769 1.0
377 378 1.0
377 1431 -1.0
377 1485 -1.0
377 1770 1.0
378 379 1.0
378 1486 -1.0
378 1542 -1.0
378 1803 1.0
379 380 1.0
379 1488 -1.0
379 1544 -1.0
379 1804 1.0
380 381 1.0
380 1490 -1.0
380 1546 -1.0
380 1805 1.0
381 382 1.0
381 1492 -1.0
381 1548 -1.0
381 1806 1.0
382 383 1.0
382 1494 -1.0
382 1550 -1.0
382 1807 1.0
383 384 1.0
383 1496 -1.0
383 1552 -1.0
383 1808 1.0
384 385 1.0
384 1498 -1.0
384 1554 -1.0
384 1809 1.0
385 386 1.0
385 1500 -1.0
385 1556 -1.0
385 1810 1.0
386 387 1.0
386 1502 -1.0
386 1558 -1.0
386 1811 1.0
387 388 1.0
387 1504 -1.0
387 1560 -1.0
387 1812 1.0
388 389 1.0
388 1506 -1.0
388 1562 -1.0
388 1813 1.0
389 390 1.0
389 1508 -1.0
389 1564 -1.0
389 1814 1.0
390 391 1.0
390 1510 -1.0
390 1566 -1.0
390 1815 1.0
391 392 1.0
391 1512 -1.0
391 1568 -1.0
391 1816 1.0
392 393 1.0
392 1514 -1.0
392 1570 -1.0
392 1817 1.0
393 394 1.0
393 1516 -1.0
393 1572 -1.0
393 1818 1.0
394 395 1.0
394 1518 -1.0
394 1574 -1.0
394 1819 1.0
395 396 1.0
395 1520 -1.0
395 1576 -1.0
395 1820 1.0
396 397 1.0
396 1522 -1.0
396 1578 -1.0
396 1821 1.0
397 398 1.0
397 1524 -1.0
397 1580 -1.0
397 1822 1.0
398 399 1.0
398 1526 -1.0
398 1582 -1.0
398 1823 1.0
399 400 1.0
399 1528 -1.0
399 1584 -1.0
399 1824 1.0
400 401 1.0
400 1530 -1.0
400 1586 -1.0
400 1825 1.0
401 402 1.0
401 1532 -1.0
401 1588 -1.0
401 1826 1.0
402 403 1.0
402 1534 -1.0
402 1590 -1.0
402 1827 1.0
403 404 1.0
403 1536 -1.0
403 1592 -1.0
403 1828 1.0
404 405 1.0
404 1538 -1.0
404 1594 -1.0
404 1829 1.0
405 406 1.0
405 1540 -1.0
405 1596 -1.0
405 1830 1.0
406 407 1.0
406 1597 -1.0
406 1655 -1.0
406 1863 1.0
407 408 1.0
407 1599 -1.0
407 1657 -1.0
407 1864 1.0
408 409 1.0
408 1601 -1.0
408 1659 -1.0
408 1865 1.0
409 410 1.0
409 1603 -1.0
409 1661 -1.0
409 1866 1.0
410 411 1.0
410 1605 -1.0
410 1663 -1.0
410 1867 1.0
411 412 1.0
411 1607 -1.0
411 1665 -1.0
411 1868 1.0
412 413 1.0
412 1609 -1.0
412 1667 -1.0
412 1869 1.0
413 414 1.0
413 1611 -1.0
413 1669 -1.0
413 1870 1.0
414 415 1.0
414 1613 -1.0
414 1671 -1.0
414 1871 1.0
415 416 1.0
415 1615 -1.0
415 1673 -1.0
415 1872 1.0
416 417 1.0
416 1617 -1.0
416 1675 -1.0
416 1873 1.0
417 418 1.0
417 1619 -1.0
417 1677 -1.0
417 1874 1.0
418 419 1.0
418 1621 -1.0
418 1679 -1.0
418 1875 1.0
419 420 1.0
419 1623 -1.0
419 1681 -1.0
419 1876 1.0
420 421 1.0
420 1625 -1.0
420 1683 -1.0
420 1877 1.0
421 422 1.0
421 1627 -1.0
421 1685 -1.0
421 1878 1.0
422 423 1.0
422 1629 -1.0
422 1687 -1.0
422 1879 1.0
423 424 1.0
423 1631 -1.0
423 1689 -1.0
423 1880 1.0
424 425 1.0
424 1633 -1.0
424 1691 -1.0
424 1881 1.0
425 426 1.0
425 1635 -1.0
425 1693 -1.0
425 1882 1.0
426 427 1.0
426 1637 -1.0
426 1695 -1.0
426 1883 1.0
427 428 1.0
427 1639 -1.0
427 1697 -1.0
427 1884 1.0
428 429 1.0
428 1641 -1.0
428 1699 -1.0
428 1885 1.0
429 430 1.0
429 1643 -1.0
429 1701 -1.0
429 1886 1.0
430 431 1.0
430 1645 -1.0
430 1703 -1.0
430 1887 1.0
431 432 1.0
431 1647 -1.0
431 1705 -1.0
431 1888 1.0
432 433 1.0
432 1649 -1.0
432 1707 -1.0
432 1889 1.0
433 434 1.0
433 1651 -1.0
433 1709 -1.0
433 1890 1.0
434 435 1.0
434 1653 -1.0
434 1711 -1.0
434 1891 1.0
435 436 1.0
435 1712 -1.0
435 1772 -1.0
435 1924 1.0
436 437 1.0
436 1714 -1.0
436 1774 -1.0
436 1925 1.0
437 438 1.0
437 1716 -1.0
437 1776 -1.0
437 1926 1.0
438 439 1.0
438 1718 -1.0
438 1778 -1.0
438 1927 1.0
439 440 1.0
439 1720 -1.0
439 1780 -1.0
439 1928 1.0
440 441 1.0
440 1722 -1.0
440 1782 -1.0
440 1929 1.0
441 442 1.0
441 1724 -1.0
441 1784 -1.0
441 1930 1.0
442 443 1.0
442 1726 -1.0
442 1786 -1.0
442 1931 1.0
443 444 1.0
443 1728 -1.0
443 1788 -1.0
443 1932 1.0
444 445 1.0
444 1730 -1.0
444 1790 -1.0
444 1933 1.0
445 446 1.0
445 1732 -1.0
445 1792 -1.0
445 1934 1.0
446 447 1.0
446 1734 -1.0
446 1794 -1.0
446 1935 1.0
447 448 1.0
447 1736 -1.0
447 1796 -1.0
447 1936 1.0
448 449 1.0
448 1738 -1.0
448 1798 -1.0
448 1937 1.0
449 450 1.0
449 1740 -1.0
449 1800 -1.0
449 1938 1.0
450 451 1.0
450 1742 -1.0
450 1802 -1.0
450 1939 1.0
451 452 1.0
451 1744 -1.0
451 1804 -1.0
451 1940 1.0
452 453 1.0
452 1746 -1.0
452 1806 -1.0
452 1941 1.0
453 454 1.0
453 1748 -1.0
453 1808 -1.0
453 1942 1.0
454 455 1.0
454 1750 -1.0
454 1810 -1.0
454 1943 1.0
455 456 1.0
455 1752 -1.0
455 1812 -1.0
455 1944 1.0
456 457 1.0
456 1754 -1.0
456 1814 -1.0
456 1945 1.0
457 458 1.0
457 1756 -1.0
457 1816 -1.0
457 1946 1.0
458 459 1.0
458 1758 -1.0
458 1818 -1.0
458 1947 1.0
459 460 1.0
459 1760 -1.0
459 1820 -1.0
459 1948 1.0
460 461 1.0
460 1762 -1.0
460 1822 -1.0
460 1949 1.0
461 462 1.0
461 1764 -1.0
461 1824 -1.0
461 1950 1.0
462 463 1.0
462 1766 -1.0
462 1826 -1.0
462 1951 1.0
463 464 1.0
463 1768 -1.0
463 1828 -1.0
463 1952 1.0
464 465 1.0
464 1770 -1.0
464 1830 -1.0
464 1953 1.0
465 466 1.0
465 1831 -1.0
465 1893 -1.0
465 1986 1.0
466 467 1.0
466 1833 -1.0
466 1895 -1.0
466 1987 1.0
467 468 1.0
467 1835 -1.0
467 1897 -1.0
467 1988 1.0
468 469 1.0
468 1837 -1.0
468 1899 -1.0
468 1989 1.0
469 470 1.0
469 1839 -1.0
469 1901 -1.0
469 1990 1.0
470 471 1.0
470 1841 -1.0
470 1903 -1.0
470 1991 1.0
471 472 1.0
471 1843 -1.0
471 1905 -1.0
471 1992 1.0
472 473 1.0
472 1845 -1.0
472 1907 -1.0
472 1993 1.0
473 474 1.0
473 1847 -1.0
473 1909 -1.0
473 1994 1.0
474 475 1.0
474 1849 -1.0
474 1911 -1.0
474 1995 1.0
475 476 1.0
475 1851 -1.0
475 1913 -1.0
475 1996 1.0
476 477 1.0
476 1853 -1.0
476 1915 -1.0
476 1997 1.0
477 478 1.0
477 1855 -1.0
477 1917 -1.0
477 1998 1.0
478 479 1.0
478 1857 -1.0
478 1919 -1.0
478 1999 1.0
479 480 1.0
479 1859 -1.0
479 1921 -1.0
479 2000 1.0
480 481 1.0
480 1861 -1.0
480 1923 -1.0
480 2001 1.0
481 482 1.0
481 1863 -1.0
481 1925 -1.0
481 2002 1.0
482 483 1.0
482 1865 -1.0
482 1927 -1.0
482 2003 1.0
483 484 1.0
483 1867 -1.0
483 1929 -1.0
483 2004 1.0
484 485 1.0
484 1869 -1.0
484 1931 -1.0
484 2005 1.0
485 486 1.0
485 1871 -1.0
485 1933 -1.0
485 2006 1.0
486 487 1.0
486 1873 -1.0
486 1935 -1.0
486 2007 1.0
487 488 1.0
487 1875 -1.0
487 1937 -1.0
487 2008 1.0
488 489 1.0
488 1877 -1.0
488 1939 -1.0
488 2009 1.0
489 490 1.0
489 1879 -1.0
489 1941 -1.0
489 2010 1.0
490 491 1.0
490 1881 -1.0
490 1943 -1.0
490 2011 1.0
491 492 1.0
491 1883 -1.0
491 1945 -1.0
491 2012 1.0
492 493 1.0
492 1885 -1.0
492 1947 -1.0
492 2013 1.0
493 494 1.0
493 1887 -1.0
493 1949 -1.0
493 2014 1.0
494 495 1.0
494 1889 -1.0
494 1951 -1.0
494 2015 1.0
495 496 1.0
495 1891 -1.0
495 1953 -1.0
495 2016 1.0
496 497 1.0
496 1954 -1.0
496 2018 -1.0
496 2049 1.0
497 498 1.0
497 1956 -1.0
497 2020 -1.0
497 2050 1.0
498 499 1.0
498 1958 -1.0
498 2022 -1.0
498 2051 1.0
499 500 1.0
499 1960 -1.0
499 2024 -1.0
499 2052 1.0
500 501 1.0
500 1962 -1.0
500 2026 -1.0
500 2053 1.0
501 502 1.0
501 1964 -1.0
501 2028 -1.0
501 2054 1.0
502 503 1.0
502 1966 -1.0
502 2030 -1.0
502 2055 1.0
503 504 1.0
503 1968 -1.0
503 2032 -1.0
503 2056 1.0
504 505 1.0
504 1970 -1.0
504 2034 -1.0
504 2057 1.0
505 506 1.0
505 1972 -1.0
505 2036 -1.0
505 2058 1.0
506 507 1.0
506 1974 -1.0
506 2038 -1.0
506 2059 1.0
507 508 1.0
507 1976 -1.0
507 2040 -1.0
507 2060 1.0
508 509 1.0
508 1978 -1.0
508 2042 -1.0
508 2061 1.0
509 510 1.0
509 1980 -1.0
509 2044 -1.0
509 2062 1.0
510 511 1.0
510 1982 -1.0
510 2046 -1.0
510 2063 1.0
511 512 1.0
511 1984 -1.0
511 2048 -1.0
511 2064 1.0
512 513 1.0
512 1986 -1.0
512 2050 -1.0
512 2065 1.0
513 514 1.0
513 1988 -1.0
513 2052 -1.0
513 2066 1.0
514 515 1.0
514 1990 -1.0
514 2054 -1.0
514 2067 1.0
515 516 1.0
515 1992 -1.0
515 2056 -1.0
515 2068 1.0
516 517 1.0
516 1994 -1.0
516 2058 -1.0
516 2069 1.0
517 518 1.0
517 1996 -1.0
517 2060 -1.0
517 2070 1.0
518 519 1.0
518 1998 -1.0
518 2062 -1.0
518 2071 1.0
519 520 1.0
519 2000 -1.0
519 2064 -1.0
519 2072 1.0
520 521 1.0
520 2002 -1.0
520 2066 -1.0
520 2073 1.0
521 522 1.0
521 2004 -1.0
521 2068 -1.0
521 2074 1.0
522 523 1.0
522 2006 -1.0
522 2070 -1.0
522 2075 1.0
523 524 1.0
523 2008 -1.0
523 2072 -1.0
523 2076 1.0
524 525 1.0
524 2010 -1.0
524 2074 -1.0
524 2077 1.0
525 526 1.0
525 2012 -1.0
525 2076 -1.0
525 2078 1.0
526 527 1.0
526 2014 -1.0
526 2078 -1.0
526 2079 1.0
527 528 1.0
527 2016 -1.0
528 1 1.0
528 3 1.0
528 6 1.0
528 10 1.0
528 15 1.0
528 21 1.0
528 28 1.0
528 36 1.0
528 45 1.0
528 55 1.0
528 66 1.0
528 78 1.0
528 91 1.0
528 105 1.0
528 120 1.0
528 136 1.0
528 153 1.0
528 171 1.0
528 190 1.0
528 210 1.0
528 231 1.0
528 253 1.0
528 276 1.0
528 300 1.0
528 325 1.0
528 351 1.0
528 378 1.0
528 406 1.0
528 435 1.0
528 465 1.0
528 496 1.0
528 528 1.0
528 561 1.0
528 595 1.0
528 630 1.0
528 666 1.0
528 703 1.0
528 741 1.0
528 780 1.0
528 820 1.0
528 861 1.0
528 903 1.0
528 946 1.0
528 990 1.0
528 1035 1.0
528 1081 1.0
528 1128 1.0
528 1176 1.0
528 1225 1.0
528 1275 1.0
528 1326 1.0
528 1378 1.0
528 1431 1.0
528 1485 1.0
528 1540 1.0
528 1596 1.0
528 1653 1.0
528 1711 1.0
528 1770 1.0
528 1830 1.0
528 1891 1.0
528 1953 1.0
528 2016 1.0
528 2080 1.0
529 0 1.0

BCOORD
1
528 1.0
